NAME : n60w40.003.603.tour
COMMENT : Length = 603
COMMENT : Found by LKH [Keld Helsgaun] Tue May  2 05:18:27 2017
TYPE : TOUR
DIMENSION : 61
TOUR_SECTION
1
19
34
53
44
16
29
46
41
33
2
56
8
20
3
42
59
7
50
28
30
10
55
27
39
35
43
38
52
37
26
36
13
6
9
31
45
48
57
25
18
51
58
40
15
12
54
21
22
5
32
4
14
17
60
23
11
47
49
61
24
-1
EOF
